Gurobi Optimizer version 9.1.0 build v9.1.0rc0 (linux64)
Thread count: 8 physical cores, 16 logical processors, using up to 16 threads
Optimize a model with 21858 rows, 20160 columns and 110380 nonzeros
Model fingerprint: 0xbca357f1
Variable types: 0 continuous, 20160 integer (20160 binary)
Coefficient statistics:
  Matrix range     [1e+00, 1e+00]
  Objective range  [1e+01, 3e+04]
  Bounds range     [1e+00, 1e+00]
  RHS range        [1e+00, 2e+02]
Presolve removed 20 rows and 20 columns
Presolve time: 0.23s
Presolved: 21838 rows, 20140 columns, 110340 nonzeros
Variable types: 0 continuous, 20140 integer (20140 binary)
Found heuristic solution: objective 258970.00000

Concurrent LP optimizer: primal simplex, dual simplex, and barrier
Showing barrier log only...

Root barrier log...

Ordering time: 0.08s

Barrier statistics:
 Dense cols : 80
 AA' NZ     : 9.484e+04
 Factor NZ  : 4.102e+05 (roughly 20 MBytes of memory)
 Factor Ops : 1.415e+07 (less than 1 second per iteration)
 Threads    : 6

                  Objective                Residual
Iter       Primal          Dual         Primal    Dual     Compl     Time
   0   9.77908078e+06 -4.05405853e+04  7.45e+01 0.00e+00  1.41e+03     1s
   1   3.18184767e+05 -3.47132363e+06  4.42e-01 2.91e+02  6.84e+01     1s
   2   2.76422564e+05 -3.95621774e+05  9.32e-02 8.63e+01  1.12e+01     1s
   3   2.62979491e+05  1.07177983e+05  1.71e-02 1.83e+01  2.54e+00     1s
   4   2.49727069e+05  1.94247297e+05  2.80e-03 5.51e+00  9.03e-01     1s
   5   2.44462315e+05  2.18489309e+05  1.67e-03 1.96e+00  4.21e-01     1s
   6   2.39734249e+05  2.24713707e+05  9.96e-04 1.08e+00  2.43e-01     1s
   7   2.37367097e+05  2.26408485e+05  7.08e-04 7.90e-01  1.77e-01     1s
   8   2.35206104e+05  2.28800843e+05  4.43e-04 4.22e-01  1.04e-01     1s
   9   2.33992543e+05  2.29949063e+05  2.98e-04 2.41e-01  6.53e-02     1s
  10   2.33337526e+05  2.30126650e+05  2.26e-04 2.06e-01  5.19e-02     1s
  11   2.33116339e+05  2.30291902e+05  2.03e-04 1.73e-01  4.56e-02     1s
  12   2.32435709e+05  2.30470339e+05  1.31e-04 1.32e-01  3.18e-02     1s
  13   2.32158180e+05  2.30716350e+05  1.03e-04 8.46e-02  2.33e-02     1s
  14   2.31944728e+05  2.30807550e+05  8.16e-05 6.44e-02  1.84e-02     1s
  15   2.31658034e+05  2.30904498e+05  5.29e-05 4.16e-02  1.22e-02     1s
  16   2.31443822e+05  2.30982171e+05  3.28e-05 2.34e-02  7.45e-03     1s
  17   2.31311424e+05  2.31011920e+05  2.02e-05 1.59e-02  4.84e-03     1s
  18   2.31268554e+05  2.31033492e+05  1.65e-05 1.04e-02  3.79e-03     1s
  19   2.31257728e+05  2.31036156e+05  1.55e-05 9.60e-03  3.57e-03     1s
  20   2.31141766e+05  2.31051882e+05  5.36e-06 5.87e-03  1.45e-03     1s
  21   2.31094880e+05  2.31071158e+05  1.59e-06 5.29e-04  3.82e-04     1s
  22   2.31087999e+05  2.31073261e+05  1.07e-06 8.29e-05  2.37e-04     1s
  23   2.31079473e+05  2.31073697e+05  3.75e-07 4.01e-05  9.28e-05     1s
  24   2.31077581e+05  2.31073833e+05  2.40e-07 2.89e-05  6.02e-05     1s
  25   2.31076184e+05  2.31073837e+05  1.46e-07 2.49e-05  3.77e-05     1s
  26   2.31074806e+05  2.31073965e+05  5.26e-08 2.75e-06  1.35e-05     1s
  27   2.31074293e+05  2.31073991e+05  1.87e-08 2.40e-07  4.85e-06     1s

Barrier performed 27 iterations in 1.35 seconds
Barrier solve interrupted - model solved by another algorithm


Solved with dual simplex

Root relaxation: objective 2.310740e+05, 3622 iterations, 1.01 seconds

    Nodes    |    Current Node    |     Objective Bounds      |     Work
 Expl Unexpl |  Obj  Depth IntInf | Incumbent    BestBd   Gap | It/Node Time

     0     0 231074.000    0  280 258970.000 231074.000  10.8%     -    1s
H    0     0                    231099.00000 231074.000  0.01%     -    1s
H    0     0                    231085.00000 231074.000  0.00%     -    2s

Cutting planes:
  Gomory: 1
  Zero half: 5

Explored 1 nodes (3729 simplex iterations) in 2.12 seconds
Thread count was 16 (of 16 available processors)

Solution count 3: 231085 231099 258970 

Optimal solution found (tolerance 1.00e-04)
Best objective 2.310850000000e+05, best bound 2.310780000000e+05, gap 0.0030%

User-callback calls 592, time in user-callback 0.01 sec
['/opt/local/stow/gurobi910/linux64/lib/libgurobi91.so']
Optimal Result: runtime=1.63sec; objective=231085; gap=0.0000%
Solution written to /autofs/unityaccount/cremi/mdeboute/Bureau/multi-period-flp/solution//instMulti_I20_J250_T4_1_result.txt
